inputs/113.in
12
0 99 56 44 43 63 83 89 80 3 88 30 
99 0 21 65 21 8 36 96 22 79 56 77 
56 21 0 83 79 58 82 9 29 99 63 63 
44 65 83 0 32 85 83 98 13 60 56 47 
43 21 79 32 0 73 22 32 55 34 3 63 
63 8 58 85 73 0 12 78 26 52 94 71 
83 36 82 83 22 12 0 22 67 77 23 11 
89 96 9 98 32 78 22 0 74 38 1 70 
80 22 29 13 55 26 67 74 0 63 62 33 
3 79 99 60 34 52 77 38 63 0 3 46 
88 56 63 56 3 94 23 1 62 3 0 84 
30 77 63 47 63 71 11 70 33 46 84 0 
BRRRBRRBBBBR
