output/113.out
45 35 13 23 14 48 8 9 30 50 21 41 2 43 37 6 15 39 32 26 36 34 47 44 29 22 1 12 25 7 18 40 10 19 27 31 5 46 24 4 17 49 11 3 20 42 33 28 16 38 
